p cnf 539 1263
a 451 344 348 351 357 360 468 366 372 478 377 380 488 491 495 279 388 391 395 398 403 406 410 413 419 422 426 429 434 437 529 443 7 13 24 30 2 1 40 18 6 12 35 23 29 50 45 60 55 70 65 80 75 85 90 95 105 100 110 115 120 130 125 135 140 145 163 158 150 154 180 175 167 171 184 193 188 203 198 208 212 218 223 232 228 242 237 247 251 255 260 297 274 269 265 278 289 284 293 310 302 306 320 315 324 328 333 338 0
d 441 2 529 0
d 311 491 302 306 2 0
d 343 451 163 180 2 0
d 213 24 30 0
d 353 7 13 208 24 0
d 375 478 247 251 2 0
d 364 468 2 0
d 298 274 278 289 293 495 0
d 385 297 310 320 324 488 0
d 3 2 0
d 4 1 2 0
d 5 1 2 0
d 8 7 0
d 9 6 7 0
d 10 6 7 0
d 11 1 2 6 7 0
d 14 13 0
d 15 12 13 0
d 16 12 13 0
d 17 1 2 6 7 12 13 0
d 19 6 12 0
d 20 18 6 12 0
d 21 18 6 12 0
d 22 1 2 6 7 12 13 18 0
d 25 24 0
d 26 23 24 0
d 27 23 24 0
d 28 1 2 6 7 12 13 18 23 24 0
d 31 30 0
d 32 29 30 0
d 33 29 30 0
d 34 1 2 6 7 12 13 18 23 24 29 30 0
d 36 23 29 0
d 37 35 23 29 0
d 38 35 23 29 0
d 39 1 2 6 7 12 13 18 23 24 29 30 35 0
d 41 18 35 0
d 42 40 18 35 0
d 43 40 18 35 0
d 44 1 2 6 7 12 13 18 23 24 29 30 35 40 0
d 46 7 12 0
d 47 45 7 12 0
d 48 45 7 12 0
d 49 1 2 6 7 12 13 18 23 24 29 30 35 40 45 0
d 51 45 35 0
d 52 50 45 35 0
d 53 50 45 35 0
d 54 1 2 6 7 12 13 18 23 24 29 30 35 40 45 50 0
d 56 6 13 0
d 57 55 6 13 0
d 58 55 6 13 0
d 59 1 2 6 7 12 13 18 23 24 29 30 35 40 45 50 55 0
d 61 55 35 0
d 62 60 55 35 0
d 63 60 55 35 0
d 64 1 2 6 7 12 13 18 23 24 29 30 35 40 45 50 55 60 0
d 66 7 13 0
d 67 65 7 13 0
d 68 65 7 13 0
d 69 1 2 6 7 12 13 18 23 24 29 30 35 40 45 50 55 60 65 0
d 71 65 35 0
d 72 70 65 35 0
d 73 70 65 35 0
d 74 1 2 6 7 12 13 18 23 24 29 30 35 40 45 50 55 60 65 70 0
d 76 24 29 0
d 77 75 24 29 0
d 78 75 24 29 0
d 79 1 2 6 7 12 13 18 23 24 29 30 35 40 45 50 55 60 65 70 75 0
d 81 18 75 0
d 82 80 18 75 0
d 83 80 18 75 0
d 84 1 2 6 7 12 13 18 23 24 29 30 35 40 45 50 55 60 65 70 75 80 0
d 86 45 75 0
d 87 85 45 75 0
d 88 85 45 75 0
d 89 1 2 6 7 12 13 18 23 24 29 30 35 40 45 50 55 60 65 70 75 80 85 0
d 91 55 75 0
d 92 90 55 75 0
d 93 90 55 75 0
d 94 1 2 6 7 12 13 18 23 24 29 30 35 40 45 50 55 60 65 70 75 80 85 90 0
d 96 65 75 0
d 97 95 65 75 0
d 98 95 65 75 0
d 99 1 2 6 7 12 13 18 23 24 29 30 35 40 45 50 55 60 65 70 75 80 85 90 95 0
d 101 23 30 0
d 102 100 23 30 0
d 103 100 23 30 0
d 104 1 2 6 7 12 13 18 23 24 29 30 35 40 45 50 55 60 65 70 75 80 85 90 95 100 0
d 106 18 100 0
d 107 105 18 100 0
d 108 105 18 100 0
d 109 1 2 6 7 12 13 18 23 24 29 30 35 40 45 50 55 60 65 70 75 80 85 90 95 100 105 0
d 111 45 100 0
d 112 110 45 100 0
d 113 110 45 100 0
d 114 1 2 6 7 12 13 18 23 24 29 30 35 40 45 50 55 60 65 70 75 80 85 90 95 100 105 110 0
d 116 55 100 0
d 117 115 55 100 0
d 118 115 55 100 0
d 119 1 2 6 7 12 13 18 23 24 29 30 35 40 45 50 55 60 65 70 75 80 85 90 95 100 105 110 115 0
d 121 65 100 0
d 122 120 65 100 0
d 123 120 65 100 0
d 124 1 2 6 7 12 13 18 23 24 29 30 35 40 45 50 55 60 65 70 75 80 85 90 95 100 105 110 115 120 0
d 126 24 30 0
d 127 125 24 30 0
d 128 125 24 30 0
d 129 1 2 6 7 12 13 18 23 24 29 30 35 40 45 50 55 60 65 70 75 80 85 90 95 100 105 110 115 120 125 0
d 131 18 125 0
d 132 130 18 125 0
d 133 130 18 125 0
d 134 1 2 6 7 12 13 18 23 24 29 30 35 40 45 50 55 60 65 70 75 80 85 90 95 100 105 110 115 120 125 130 0
d 136 45 125 0
d 137 135 45 125 0
d 138 135 45 125 0
d 139 1 2 6 7 12 13 18 23 24 29 30 35 40 45 50 55 60 65 70 75 80 85 90 95 100 105 110 115 120 125 130 135 0
d 141 55 125 0
d 142 140 55 125 0
d 143 140 55 125 0
d 144 1 2 6 7 12 13 18 23 24 29 30 35 40 45 50 55 60 65 70 75 80 85 90 95 100 105 110 115 120 125 130 135 140 0
d 146 65 125 0
d 147 145 65 125 0
d 148 145 65 125 0
d 149 1 2 6 7 12 13 18 23 24 29 30 35 40 45 50 55 60 65 70 75 80 85 90 95 100 105 110 115 120 125 130 135 140 145 0
d 151 150 7 0
d 152 150 7 0
d 153 1 2 6 7 12 13 18 23 24 29 30 35 40 45 50 55 60 65 70 75 80 85 90 95 100 105 110 115 120 125 130 135 140 145 150 0
d 155 154 13 0
d 156 154 13 0
d 157 1 2 6 7 12 13 18 23 24 29 30 35 40 45 50 55 60 65 70 75 80 85 90 95 100 105 110 115 120 125 130 135 140 145 150 154 0
d 159 150 154 0
d 160 158 150 154 0
d 161 158 150 154 0
d 162 1 2 6 7 12 13 18 23 24 29 30 35 40 45 50 55 60 65 70 75 80 85 90 95 100 105 110 115 120 125 130 135 140 145 150 154 158 0
d 164 163 158 0
d 165 163 158 0
d 166 1 2 6 7 12 13 18 23 24 29 30 35 40 45 50 55 60 65 70 75 80 85 90 95 100 105 110 115 120 125 130 135 140 145 150 154 158 163 0
d 168 167 24 0
d 169 167 24 0
d 170 1 2 6 7 12 13 18 23 24 29 30 35 40 45 50 55 60 65 70 75 80 85 90 95 100 105 110 115 120 125 130 135 140 145 150 154 158 163 167 0
d 172 171 30 0
d 173 171 30 0
d 174 1 2 6 7 12 13 18 23 24 29 30 35 40 45 50 55 60 65 70 75 80 85 90 95 100 105 110 115 120 125 130 135 140 145 150 154 158 163 167 171 0
d 176 167 171 0
d 177 175 167 171 0
d 178 175 167 171 0
d 179 1 2 6 7 12 13 18 23 24 29 30 35 40 45 50 55 60 65 70 75 80 85 90 95 100 105 110 115 120 125 130 135 140 145 150 154 158 163 167 171 175 0
d 181 180 175 0
d 182 180 175 0
d 183 1 2 6 7 12 13 18 23 24 29 30 35 40 45 50 55 60 65 70 75 80 85 90 95 100 105 110 115 120 125 130 135 140 145 150 154 158 163 167 171 175 180 0
d 185 184 2 0
d 186 184 2 0
d 187 1 2 6 7 12 13 18 23 24 29 30 35 40 45 50 55 60 65 70 75 80 85 90 95 100 105 110 115 120 125 130 135 140 145 150 154 158 163 167 171 175 180 184 0
d 189 7 154 0
d 190 188 7 154 0
d 191 188 7 154 0
d 192 1 2 6 7 12 13 18 23 24 29 30 35 40 45 50 55 60 65 70 75 80 85 90 95 100 105 110 115 120 125 130 135 140 145 150 154 158 163 167 171 175 180 184 188 0
d 194 188 175 0
d 195 193 188 175 0
d 196 193 188 175 0
d 197 1 2 6 7 12 13 18 23 24 29 30 35 40 45 50 55 60 65 70 75 80 85 90 95 100 105 110 115 120 125 130 135 140 145 150 154 158 163 167 171 175 180 184 188 193 0
d 199 150 13 0
d 200 198 150 13 0
d 201 198 150 13 0
d 202 1 2 6 7 12 13 18 23 24 29 30 35 40 45 50 55 60 65 70 75 80 85 90 95 100 105 110 115 120 125 130 135 140 145 150 154 158 163 167 171 175 180 184 188 193 198 0
d 204 198 175 0
d 205 203 198 175 0
d 206 203 198 175 0
d 207 1 2 6 7 12 13 18 23 24 29 30 35 40 45 50 55 60 65 70 75 80 85 90 95 100 105 110 115 120 125 130 135 140 145 150 154 158 163 167 171 175 180 184 188 193 198 203 0
d 209 208 171 0
d 210 208 171 0
d 211 1 2 6 7 12 13 18 23 24 29 30 35 40 45 50 55 60 65 70 75 80 85 90 95 100 105 110 115 120 125 130 135 140 145 150 154 158 163 167 171 175 180 184 188 193 198 203 208 0
d 214 158 24 30 0
d 215 212 158 24 30 0
d 216 212 158 24 30 0
d 217 1 2 6 7 12 13 18 23 24 29 30 35 40 45 50 55 60 65 70 75 80 85 90 95 100 105 110 115 120 125 130 135 140 145 150 154 158 163 167 171 175 180 184 188 193 198 203 208 212 0
d 219 188 24 30 0
d 220 218 188 24 30 0
d 221 218 188 24 30 0
d 222 1 2 6 7 12 13 18 23 24 29 30 35 40 45 50 55 60 65 70 75 80 85 90 95 100 105 110 115 120 125 130 135 140 145 150 154 158 163 167 171 175 180 184 188 193 198 203 208 212 218 0
d 224 198 24 30 0
d 225 223 198 24 30 0
d 226 223 198 24 30 0
d 227 1 2 6 7 12 13 18 23 24 29 30 35 40 45 50 55 60 65 70 75 80 85 90 95 100 105 110 115 120 125 130 135 140 145 150 154 158 163 167 171 175 180 184 188 193 198 203 208 212 218 223 0
d 229 228 7 13 0
d 230 228 7 13 0
d 231 1 2 6 7 12 13 18 23 24 29 30 35 40 45 50 55 60 65 70 75 80 85 90 95 100 105 110 115 120 125 130 135 140 145 150 154 158 163 167 171 175 180 184 188 193 198 203 208 212 218 223 228 0
d 233 228 24 30 0
d 234 232 228 24 30 0
d 235 232 228 24 30 0
d 236 1 2 6 7 12 13 18 23 24 29 30 35 40 45 50 55 60 65 70 75 80 85 90 95 100 105 110 115 120 125 130 135 140 145 150 154 158 163 167 171 175 180 184 188 193 198 203 208 212 218 223 228 232 0
d 238 167 30 0
d 239 237 167 30 0
d 240 237 167 30 0
d 241 1 2 6 7 12 13 18 23 24 29 30 35 40 45 50 55 60 65 70 75 80 85 90 95 100 105 110 115 120 125 130 135 140 145 150 154 158 163 167 171 175 180 184 188 193 198 203 208 212 218 223 228 232 237 0
d 243 158 237 0
d 244 242 158 237 0
d 245 242 158 237 0
d 246 1 2 6 7 12 13 18 23 24 29 30 35 40 45 50 55 60 65 70 75 80 85 90 95 100 105 110 115 120 125 130 135 140 145 150 154 158 163 167 171 175 180 184 188 193 198 203 208 212 218 223 228 232 237 242 0
d 248 247 188 0
d 249 247 188 0
d 250 1 2 6 7 12 13 18 23 24 29 30 35 40 45 50 55 60 65 70 75 80 85 90 95 100 105 110 115 120 125 130 135 140 145 150 154 158 163 167 171 175 180 184 188 193 198 203 208 212 218 223 228 232 237 242 247 0
d 252 251 237 0
d 253 251 237 0
d 254 1 2 6 7 12 13 18 23 24 29 30 35 40 45 50 55 60 65 70 75 80 85 90 95 100 105 110 115 120 125 130 135 140 145 150 154 158 163 167 171 175 180 184 188 193 198 203 208 212 218 223 228 232 237 242 247 251 0
d 256 198 237 0
d 257 255 198 237 0
d 258 255 198 237 0
d 259 1 2 6 7 12 13 18 23 24 29 30 35 40 45 50 55 60 65 70 75 80 85 90 95 100 105 110 115 120 125 130 135 140 145 150 154 158 163 167 171 175 180 184 188 193 198 203 208 212 218 223 228 232 237 242 247 251 255 0
d 261 228 237 0
d 262 260 228 237 0
d 263 260 228 237 0
d 264 1 2 6 7 12 13 18 23 24 29 30 35 40 45 50 55 60 65 70 75 80 85 90 95 100 105 110 115 120 125 130 135 140 145 150 154 158 163 167 171 175 180 184 188 193 198 203 208 212 218 223 228 232 237 242 247 251 255 260 0
d 266 265 24 30 0
d 267 265 24 30 0
d 268 1 2 6 7 12 13 18 23 24 29 30 35 40 45 50 55 60 65 70 75 80 85 90 95 100 105 110 115 120 125 130 135 140 145 150 154 158 163 167 171 175 180 184 188 193 198 203 208 212 218 223 228 232 237 242 247 251 255 260 265 0
d 270 198 265 0
d 271 269 198 265 0
d 272 269 198 265 0
d 273 1 2 6 7 12 13 18 23 24 29 30 35 40 45 50 55 60 65 70 75 80 85 90 95 100 105 110 115 120 125 130 135 140 145 150 154 158 163 167 171 175 180 184 188 193 198 203 208 212 218 223 228 232 237 242 247 251 255 260 265 269 0
d 275 274 269 0
d 276 274 269 0
d 277 1 2 6 7 12 13 18 23 24 29 30 35 40 45 50 55 60 65 70 75 80 85 90 95 100 105 110 115 120 125 130 135 140 145 150 154 158 163 167 171 175 180 184 188 193 198 203 208 212 218 223 228 232 237 242 247 251 255 260 265 269 274 0
d 280 184 279 0
d 281 278 184 279 0
d 282 278 184 279 0
d 283 1 2 6 7 12 13 18 23 24 29 30 35 40 45 50 55 60 65 70 75 80 85 90 95 100 105 110 115 120 125 130 135 140 145 150 154 158 163 167 171 175 180 184 188 193 198 203 208 212 218 223 228 232 237 242 247 251 255 260 265 269 274 278 279 0
d 285 228 265 0
d 286 284 228 265 0
d 287 284 228 265 0
d 288 1 2 6 7 12 13 18 23 24 29 30 35 40 45 50 55 60 65 70 75 80 85 90 95 100 105 110 115 120 125 130 135 140 145 150 154 158 163 167 171 175 180 184 188 193 198 203 208 212 218 223 228 232 237 242 247 251 255 260 265 269 274 278 279 284 0
d 290 289 284 0
d 291 289 284 0
d 292 1 2 6 7 12 13 18 23 24 29 30 35 40 45 50 55 60 65 70 75 80 85 90 95 100 105 110 115 120 125 130 135 140 145 150 154 158 163 167 171 175 180 184 188 193 198 203 208 212 218 223 228 232 237 242 247 251 255 260 265 269 274 278 279 284 289 0
d 294 293 184 0
d 295 293 184 0
d 296 1 2 6 7 12 13 18 23 24 29 30 35 40 45 50 55 60 65 70 75 80 85 90 95 100 105 110 115 120 125 130 135 140 145 150 154 158 163 167 171 175 180 184 188 193 198 203 208 212 218 223 228 232 237 242 247 251 255 260 265 269 274 278 279 284 289 293 0
d 299 297 274 278 289 293 495 0
d 300 297 274 278 289 293 495 0
d 301 1 2 6 7 12 13 18 23 24 29 30 35 40 45 50 55 60 65 70 75 80 85 90 95 100 105 110 115 120 125 130 135 140 145 150 154 158 163 167 171 175 180 184 188 193 198 203 208 212 218 223 228 232 237 242 247 251 255 260 265 269 274 278 279 284 289 293 297 495 0
d 303 302 188 0
d 304 302 188 0
d 305 1 2 6 7 12 13 18 23 24 29 30 35 40 45 50 55 60 65 70 75 80 85 90 95 100 105 110 115 120 125 130 135 140 145 150 154 158 163 167 171 175 180 184 188 193 198 203 208 212 218 223 228 232 237 242 247 251 255 260 265 269 274 278 279 284 289 293 297 495 302 0
d 307 306 265 0
d 308 306 265 0
d 309 1 2 6 7 12 13 18 23 24 29 30 35 40 45 50 55 60 65 70 75 80 85 90 95 100 105 110 115 120 125 130 135 140 145 150 154 158 163 167 171 175 180 184 188 193 198 203 208 212 218 223 228 232 237 242 247 251 255 260 265 269 274 278 279 284 289 293 297 495 302 306 0
d 312 310 491 302 306 2 0
d 313 310 491 302 306 2 0
d 314 1 2 6 7 12 13 18 23 24 29 30 35 40 45 50 55 60 65 70 75 80 85 90 95 100 105 110 115 120 125 130 135 140 145 150 154 158 163 167 171 175 180 184 188 193 198 203 208 212 218 223 228 232 237 242 247 251 255 260 265 269 274 278 279 284 289 293 297 495 302 306 310 491 0
d 316 158 265 0
d 317 315 158 265 0
d 318 315 158 265 0
d 319 1 2 6 7 12 13 18 23 24 29 30 35 40 45 50 55 60 65 70 75 80 85 90 95 100 105 110 115 120 125 130 135 140 145 150 154 158 163 167 171 175 180 184 188 193 198 203 208 212 218 223 228 232 237 242 247 251 255 260 265 269 274 278 279 284 289 293 297 495 302 306 310 491 315 0
d 321 320 315 0
d 322 320 315 0
d 323 1 2 6 7 12 13 18 23 24 29 30 35 40 45 50 55 60 65 70 75 80 85 90 95 100 105 110 115 120 125 130 135 140 145 150 154 158 163 167 171 175 180 184 188 193 198 203 208 212 218 223 228 232 237 242 247 251 255 260 265 269 274 278 279 284 289 293 297 495 302 306 310 491 315 320 0
d 325 324 184 0
d 326 324 184 0
d 327 1 2 6 7 12 13 18 23 24 29 30 35 40 45 50 55 60 65 70 75 80 85 90 95 100 105 110 115 120 125 130 135 140 145 150 154 158 163 167 171 175 180 184 188 193 198 203 208 212 218 223 228 232 237 242 247 251 255 260 265 269 274 278 279 284 289 293 297 495 302 306 310 491 315 320 324 0
d 329 158 175 0
d 330 328 158 175 0
d 331 328 158 175 0
d 332 1 2 6 7 12 13 18 23 24 29 30 35 40 45 50 55 60 65 70 75 80 85 90 95 100 105 110 115 120 125 130 135 140 145 150 154 158 163 167 171 175 180 184 188 193 198 203 208 212 218 223 228 232 237 242 247 251 255 260 265 269 274 278 279 284 289 293 297 495 302 306 310 491 315 320 324 328 0
d 334 188 237 0
d 335 333 188 237 0
d 336 333 188 237 0
d 337 1 2 6 7 12 13 18 23 24 29 30 35 40 45 50 55 60 65 70 75 80 85 90 95 100 105 110 115 120 125 130 135 140 145 150 154 158 163 167 171 175 180 184 188 193 198 203 208 212 218 223 228 232 237 242 247 251 255 260 265 269 274 278 279 284 289 293 297 495 302 306 310 491 315 320 324 328 333 0
d 339 188 265 0
d 340 338 188 265 0
d 341 338 188 265 0
d 342 1 2 6 7 12 13 18 23 24 29 30 35 40 45 50 55 60 65 70 75 80 85 90 95 100 105 110 115 120 125 130 135 140 145 150 154 158 163 167 171 175 180 184 188 193 198 203 208 212 218 223 228 232 237 242 247 251 255 260 265 269 274 278 279 284 289 293 297 495 302 306 310 491 315 320 324 328 333 338 0
d 345 184 344 0
d 346 184 344 193 0
d 347 451 163 180 2 184 344 193 0
d 349 184 348 0
d 350 184 348 203 0
d 352 184 351 0
d 354 184 351 7 13 208 24 0
d 355 184 348 203 351 7 13 208 24 0
d 356 451 163 180 2 184 344 193 348 203 351 7 13 208 24 0
d 358 184 357 0
d 359 184 357 212 0
d 361 184 360 0
d 362 184 360 218 0
d 363 184 357 212 360 218 0
d 365 468 2 223 0
d 367 184 366 0
d 368 184 366 232 0
d 369 468 2 223 184 366 232 0
d 370 184 357 212 360 218 468 2 223 366 232 0
d 371 451 163 180 2 184 344 193 348 203 351 7 13 208 24 357 212 360 218 468 223 366 232 0
d 373 184 372 0
d 374 184 372 242 0
d 376 184 372 242 478 247 251 2 0
d 378 184 377 0
d 379 184 377 255 0
d 381 184 380 0
d 382 184 380 260 0
d 383 184 377 255 380 260 0
d 384 184 372 242 478 247 251 2 377 255 380 260 0
d 386 184 372 242 478 247 251 2 377 255 380 260 297 310 320 324 488 0
d 387 451 163 180 2 184 344 193 348 203 351 7 13 208 24 357 212 360 218 468 223 366 232 372 242 478 247 251 377 255 380 260 297 310 320 324 488 0
d 389 2 388 0
d 390 2 388 328 0
d 392 2 391 0
d 393 2 391 193 0
d 394 2 388 328 391 193 0
d 396 2 395 0
d 397 2 395 203 0
d 399 2 398 0
d 400 2 398 7 13 208 24 0
d 401 2 395 203 398 7 13 208 24 0
d 402 2 388 328 391 193 395 203 398 7 13 208 24 0
d 404 2 403 0
d 405 2 403 212 0
d 407 2 406 0
d 408 2 406 218 0
d 409 2 403 212 406 218 0
d 411 2 410 0
d 412 2 410 223 0
d 414 2 413 0
d 415 2 413 232 0
d 416 2 410 223 413 232 0
d 417 2 403 212 406 218 410 223 413 232 0
d 418 2 388 328 391 193 395 203 398 7 13 208 24 403 212 406 218 410 223 413 232 0
d 420 2 419 0
d 421 2 419 242 0
d 423 2 422 0
d 424 2 422 333 0
d 425 2 419 242 422 333 0
d 427 2 426 0
d 428 2 426 255 0
d 430 2 429 0
d 431 2 429 260 0
d 432 2 426 255 429 260 0
d 433 2 419 242 422 333 426 255 429 260 0
d 435 2 434 0
d 436 2 434 315 0
d 438 2 437 0
d 439 2 437 338 0
d 440 2 434 315 437 338 0
d 442 2 529 269 0
d 444 2 443 0
d 445 2 443 284 0
d 446 2 529 269 443 284 0
d 447 2 434 315 437 338 529 269 443 284 0
d 448 2 419 242 422 333 426 255 429 260 434 315 437 338 529 269 443 284 0
d 449 2 388 328 391 193 395 203 398 7 13 208 24 403 212 406 218 410 223 413 232 419 242 422 333 426 255 429 260 434 315 437 338 529 269 443 284 0
d 450 451 163 180 2 184 344 193 348 203 351 7 13 208 24 357 212 360 218 468 223 366 232 372 242 478 247 251 377 255 380 260 297 310 320 324 488 388 328 391 395 398 403 406 410 413 419 422 333 426 429 434 315 437 338 529 269 443 284 0
d 452 1 451 0
d 453 1 451 40 0
d 454 1 344 0
d 455 1 344 50 0
d 456 1 451 40 344 50 0
d 457 1 348 0
d 458 1 348 60 0
d 459 1 351 0
d 460 1 351 70 0
d 461 1 348 60 351 70 0
d 462 1 451 40 344 50 348 60 351 70 0
d 463 1 357 0
d 464 1 357 80 0
d 465 1 360 0
d 466 1 360 85 0
d 467 1 357 80 360 85 0
d 469 1 468 0
d 470 1 468 90 0
d 471 1 366 0
d 472 1 366 95 0
d 473 1 468 90 366 95 0
d 474 1 357 80 360 85 468 90 366 95 0
d 475 1 451 40 344 50 348 60 351 70 357 80 360 85 468 90 366 95 0
d 476 1 372 0
d 477 1 372 105 0
d 479 1 478 0
d 480 1 478 110 0
d 481 1 372 105 478 110 0
d 482 1 377 0
d 483 1 377 115 0
d 484 1 380 0
d 485 1 380 120 0
d 486 1 377 115 380 120 0
d 487 1 372 105 478 110 377 115 380 120 0
d 489 1 488 0
d 490 1 488 130 0
d 492 1 491 0
d 493 1 491 135 0
d 494 1 488 130 491 135 0
d 496 1 495 0
d 497 1 495 140 0
d 498 1 279 0
d 499 1 279 145 0
d 500 1 495 140 279 145 0
d 501 1 488 130 491 135 495 140 279 145 0
d 502 1 372 105 478 110 377 115 380 120 488 130 491 135 495 140 279 145 0
d 503 1 451 40 344 50 348 60 351 70 357 80 360 85 468 90 366 95 372 105 478 110 377 115 380 120 488 130 491 135 495 140 279 145 0
d 504 2 388 40 0
d 505 2 391 50 0
d 506 2 388 40 391 50 0
d 507 2 395 60 0
d 508 2 398 70 0
d 509 2 395 60 398 70 0
d 510 2 388 40 391 50 395 60 398 70 0
d 511 2 403 80 0
d 512 2 406 85 0
d 513 2 403 80 406 85 0
d 514 2 410 90 0
d 515 2 413 95 0
d 516 2 410 90 413 95 0
d 517 2 403 80 406 85 410 90 413 95 0
d 518 2 388 40 391 50 395 60 398 70 403 80 406 85 410 90 413 95 0
d 519 2 419 105 0
d 520 2 422 110 0
d 521 2 419 105 422 110 0
d 522 2 426 115 0
d 523 2 429 120 0
d 524 2 426 115 429 120 0
d 525 2 419 105 422 110 426 115 429 120 0
d 526 2 434 130 0
d 527 2 437 135 0
d 528 2 434 130 437 135 0
d 530 2 529 0
d 531 2 529 140 0
d 532 2 443 145 0
d 533 2 529 140 443 145 0
d 534 2 434 130 437 135 529 140 443 145 0
d 535 2 419 105 422 110 426 115 429 120 434 130 437 135 529 140 443 145 0
d 536 2 388 40 391 50 395 60 398 70 403 80 406 85 410 90 413 95 419 105 422 110 426 115 429 120 434 130 437 135 529 140 443 145 0
d 537 1 451 40 344 50 348 60 351 70 357 80 360 85 468 90 366 95 372 105 478 110 377 115 380 120 488 130 491 135 495 140 279 145 2 388 391 395 398 403 406 410 413 419 422 426 429 434 437 529 443 0
d 538 451 163 180 2 184 344 193 348 203 351 7 13 208 24 357 212 360 218 468 223 366 232 372 242 478 247 251 377 255 380 260 297 310 320 324 488 388 328 391 395 398 403 406 410 413 419 422 333 426 429 434 315 437 338 529 269 443 284 1 40 50 60 70 80 85 90 95 105 110 115 120 130 491 135 495 140 279 145 0
d 539 1 2 6 7 12 13 18 23 24 29 30 35 40 45 50 55 60 65 70 75 80 85 90 95 100 105 110 115 120 125 130 135 140 145 150 154 158 163 167 171 175 180 184 188 193 198 203 208 212 218 223 228 232 237 242 247 251 255 260 265 269 274 278 279 284 289 293 297 495 302 306 310 491 315 320 324 328 333 338 451 344 348 351 357 360 468 366 372 478 377 380 488 388 391 395 398 403 406 410 413 419 422 426 429 434 437 529 443 0
3 2 0
-3 -2 0
4 -1 -3 0
4 1 3 0
-4 -1 3 0
-4 1 -3 0
5 4 0
-5 -4 0
8 7 0
-8 -7 0
9 -6 -8 0
9 6 8 0
-9 -6 8 0
-9 6 -8 0
10 9 0
-10 -9 0
11 -5 0
11 -10 0
-11 5 10 0
14 13 0
-14 -13 0
15 -12 -14 0
15 12 14 0
-15 -12 14 0
-15 12 -14 0
16 15 0
-16 -15 0
17 -11 0
17 -16 0
-17 11 16 0
-19 6 0
-19 12 0
19 -6 -12 0
20 -18 -19 0
20 18 19 0
-20 -18 19 0
-20 18 -19 0
21 20 0
-21 -20 0
22 -17 0
22 -21 0
-22 17 21 0
25 24 0
-25 -24 0
26 -23 -25 0
26 23 25 0
-26 -23 25 0
-26 23 -25 0
27 26 0
-27 -26 0
28 -22 0
28 -27 0
-28 22 27 0
31 30 0
-31 -30 0
32 -29 -31 0
32 29 31 0
-32 -29 31 0
-32 29 -31 0
33 32 0
-33 -32 0
34 -28 0
34 -33 0
-34 28 33 0
-36 23 0
-36 29 0
36 -23 -29 0
37 -35 -36 0
37 35 36 0
-37 -35 36 0
-37 35 -36 0
38 37 0
-38 -37 0
39 -34 0
39 -38 0
-39 34 38 0
-41 18 0
-41 35 0
41 -18 -35 0
42 -40 -41 0
42 40 41 0
-42 -40 41 0
-42 40 -41 0
43 42 0
-43 -42 0
44 -39 0
44 -43 0
-44 39 43 0
-46 7 0
-46 12 0
46 -7 -12 0
47 -45 -46 0
47 45 46 0
-47 -45 46 0
-47 45 -46 0
48 47 0
-48 -47 0
49 -44 0
49 -48 0
-49 44 48 0
-51 45 0
-51 35 0
51 -45 -35 0
52 -50 -51 0
52 50 51 0
-52 -50 51 0
-52 50 -51 0
53 52 0
-53 -52 0
54 -49 0
54 -53 0
-54 49 53 0
-56 6 0
-56 13 0
56 -6 -13 0
57 -55 -56 0
57 55 56 0
-57 -55 56 0
-57 55 -56 0
58 57 0
-58 -57 0
59 -54 0
59 -58 0
-59 54 58 0
-61 55 0
-61 35 0
61 -55 -35 0
62 -60 -61 0
62 60 61 0
-62 -60 61 0
-62 60 -61 0
63 62 0
-63 -62 0
64 -59 0
64 -63 0
-64 59 63 0
-66 7 0
-66 13 0
66 -7 -13 0
67 -65 -66 0
67 65 66 0
-67 -65 66 0
-67 65 -66 0
68 67 0
-68 -67 0
69 -64 0
69 -68 0
-69 64 68 0
-71 65 0
-71 35 0
71 -65 -35 0
72 -70 -71 0
72 70 71 0
-72 -70 71 0
-72 70 -71 0
73 72 0
-73 -72 0
74 -69 0
74 -73 0
-74 69 73 0
-76 24 0
-76 29 0
76 -24 -29 0
77 -75 -76 0
77 75 76 0
-77 -75 76 0
-77 75 -76 0
78 77 0
-78 -77 0
79 -74 0
79 -78 0
-79 74 78 0
-81 18 0
-81 75 0
81 -18 -75 0
82 -80 -81 0
82 80 81 0
-82 -80 81 0
-82 80 -81 0
83 82 0
-83 -82 0
84 -79 0
84 -83 0
-84 79 83 0
-86 45 0
-86 75 0
86 -45 -75 0
87 -85 -86 0
87 85 86 0
-87 -85 86 0
-87 85 -86 0
88 87 0
-88 -87 0
89 -84 0
89 -88 0
-89 84 88 0
-91 55 0
-91 75 0
91 -55 -75 0
92 -90 -91 0
92 90 91 0
-92 -90 91 0
-92 90 -91 0
93 92 0
-93 -92 0
94 -89 0
94 -93 0
-94 89 93 0
-96 65 0
-96 75 0
96 -65 -75 0
97 -95 -96 0
97 95 96 0
-97 -95 96 0
-97 95 -96 0
98 97 0
-98 -97 0
99 -94 0
99 -98 0
-99 94 98 0
-101 23 0
-101 30 0
101 -23 -30 0
102 -100 -101 0
102 100 101 0
-102 -100 101 0
-102 100 -101 0
103 102 0
-103 -102 0
104 -99 0
104 -103 0
-104 99 103 0
-106 18 0
-106 100 0
106 -18 -100 0
107 -105 -106 0
107 105 106 0
-107 -105 106 0
-107 105 -106 0
108 107 0
-108 -107 0
109 -104 0
109 -108 0
-109 104 108 0
-111 45 0
-111 100 0
111 -45 -100 0
112 -110 -111 0
112 110 111 0
-112 -110 111 0
-112 110 -111 0
113 112 0
-113 -112 0
114 -109 0
114 -113 0
-114 109 113 0
-116 55 0
-116 100 0
116 -55 -100 0
117 -115 -116 0
117 115 116 0
-117 -115 116 0
-117 115 -116 0
118 117 0
-118 -117 0
119 -114 0
119 -118 0
-119 114 118 0
-121 65 0
-121 100 0
121 -65 -100 0
122 -120 -121 0
122 120 121 0
-122 -120 121 0
-122 120 -121 0
123 122 0
-123 -122 0
124 -119 0
124 -123 0
-124 119 123 0
-126 24 0
-126 30 0
126 -24 -30 0
127 -125 -126 0
127 125 126 0
-127 -125 126 0
-127 125 -126 0
128 127 0
-128 -127 0
129 -124 0
129 -128 0
-129 124 128 0
-131 18 0
-131 125 0
131 -18 -125 0
132 -130 -131 0
132 130 131 0
-132 -130 131 0
-132 130 -131 0
133 132 0
-133 -132 0
134 -129 0
134 -133 0
-134 129 133 0
-136 45 0
-136 125 0
136 -45 -125 0
137 -135 -136 0
137 135 136 0
-137 -135 136 0
-137 135 -136 0
138 137 0
-138 -137 0
139 -134 0
139 -138 0
-139 134 138 0
-141 55 0
-141 125 0
141 -55 -125 0
142 -140 -141 0
142 140 141 0
-142 -140 141 0
-142 140 -141 0
143 142 0
-143 -142 0
144 -139 0
144 -143 0
-144 139 143 0
-146 65 0
-146 125 0
146 -65 -125 0
147 -145 -146 0
147 145 146 0
-147 -145 146 0
-147 145 -146 0
148 147 0
-148 -147 0
149 -144 0
149 -148 0
-149 144 148 0
151 -150 -8 0
151 150 8 0
-151 -150 8 0
-151 150 -8 0
152 151 0
-152 -151 0
153 -149 0
153 -152 0
-153 149 152 0
155 -154 -14 0
155 154 14 0
-155 -154 14 0
-155 154 -14 0
156 155 0
-156 -155 0
157 -153 0
157 -156 0
-157 153 156 0
159 -150 0
159 -154 0
-159 150 154 0
160 -158 -159 0
160 158 159 0
-160 -158 159 0
-160 158 -159 0
161 160 0
-161 -160 0
162 -157 0
162 -161 0
-162 157 161 0
164 -163 -158 0
164 163 158 0
-164 -163 158 0
-164 163 -158 0
165 164 0
-165 -164 0
166 -162 0
166 -165 0
-166 162 165 0
168 -167 -25 0
168 167 25 0
-168 -167 25 0
-168 167 -25 0
169 168 0
-169 -168 0
170 -166 0
170 -169 0
-170 166 169 0
172 -171 -31 0
172 171 31 0
-172 -171 31 0
-172 171 -31 0
173 172 0
-173 -172 0
174 -170 0
174 -173 0
-174 170 173 0
-176 167 0
-176 171 0
176 -167 -171 0
177 -175 -176 0
177 175 176 0
-177 -175 176 0
-177 175 -176 0
178 177 0
-178 -177 0
179 -174 0
179 -178 0
-179 174 178 0
181 -180 -175 0
181 180 175 0
-181 -180 175 0
-181 180 -175 0
182 181 0
-182 -181 0
183 -179 0
183 -182 0
-183 179 182 0
185 -184 -3 0
185 184 3 0
-185 -184 3 0
-185 184 -3 0
186 185 0
-186 -185 0
187 -183 0
187 -186 0
-187 183 186 0
-189 7 0
-189 154 0
189 -7 -154 0
190 -188 -189 0
190 188 189 0
-190 -188 189 0
-190 188 -189 0
191 190 0
-191 -190 0
192 -187 0
192 -191 0
-192 187 191 0
-194 188 0
-194 175 0
194 -188 -175 0
195 -193 -194 0
195 193 194 0
-195 -193 194 0
-195 193 -194 0
196 195 0
-196 -195 0
197 -192 0
197 -196 0
-197 192 196 0
-199 150 0
-199 13 0
199 -150 -13 0
200 -198 -199 0
200 198 199 0
-200 -198 199 0
-200 198 -199 0
201 200 0
-201 -200 0
202 -197 0
202 -201 0
-202 197 201 0
-204 198 0
-204 175 0
204 -198 -175 0
205 -203 -204 0
205 203 204 0
-205 -203 204 0
-205 203 -204 0
206 205 0
-206 -205 0
207 -202 0
207 -206 0
-207 202 206 0
209 -208 -171 0
209 208 171 0
-209 -208 171 0
-209 208 -171 0
210 209 0
-210 -209 0
211 -207 0
211 -210 0
-211 207 210 0
-214 158 0
-214 213 0
214 -158 -213 0
215 -212 -214 0
215 212 214 0
-215 -212 214 0
-215 212 -214 0
216 215 0
-216 -215 0
217 -211 0
217 -216 0
-217 211 216 0
-219 188 0
-219 213 0
219 -188 -213 0
220 -218 -219 0
220 218 219 0
-220 -218 219 0
-220 218 -219 0
221 220 0
-221 -220 0
222 -217 0
222 -221 0
-222 217 221 0
-224 198 0
-224 213 0
224 -198 -213 0
225 -223 -224 0
225 223 224 0
-225 -223 224 0
-225 223 -224 0
226 225 0
-226 -225 0
227 -222 0
227 -226 0
-227 222 226 0
229 -228 -66 0
229 228 66 0
-229 -228 66 0
-229 228 -66 0
230 229 0
-230 -229 0
231 -227 0
231 -230 0
-231 227 230 0
-233 228 0
-233 213 0
233 -228 -213 0
234 -232 -233 0
234 232 233 0
-234 -232 233 0
-234 232 -233 0
235 234 0
-235 -234 0
236 -231 0
236 -235 0
-236 231 235 0
-238 167 0
-238 30 0
238 -167 -30 0
239 -237 -238 0
239 237 238 0
-239 -237 238 0
-239 237 -238 0
240 239 0
-240 -239 0
241 -236 0
241 -240 0
-241 236 240 0
-243 158 0
-243 237 0
243 -158 -237 0
244 -242 -243 0
244 242 243 0
-244 -242 243 0
-244 242 -243 0
245 244 0
-245 -244 0
246 -241 0
246 -245 0
-246 241 245 0
248 -247 -188 0
248 247 188 0
-248 -247 188 0
-248 247 -188 0
249 248 0
-249 -248 0
250 -246 0
250 -249 0
-250 246 249 0
252 -251 -237 0
252 251 237 0
-252 -251 237 0
-252 251 -237 0
253 252 0
-253 -252 0
254 -250 0
254 -253 0
-254 250 253 0
-256 198 0
-256 237 0
256 -198 -237 0
257 -255 -256 0
257 255 256 0
-257 -255 256 0
-257 255 -256 0
258 257 0
-258 -257 0
259 -254 0
259 -258 0
-259 254 258 0
-261 228 0
-261 237 0
261 -228 -237 0
262 -260 -261 0
262 260 261 0
-262 -260 261 0
-262 260 -261 0
263 262 0
-263 -262 0
264 -259 0
264 -263 0
-264 259 263 0
266 -265 -126 0
266 265 126 0
-266 -265 126 0
-266 265 -126 0
267 266 0
-267 -266 0
268 -264 0
268 -267 0
-268 264 267 0
-270 198 0
-270 265 0
270 -198 -265 0
271 -269 -270 0
271 269 270 0
-271 -269 270 0
-271 269 -270 0
272 271 0
-272 -271 0
273 -268 0
273 -272 0
-273 268 272 0
275 -274 -269 0
275 274 269 0
-275 -274 269 0
-275 274 -269 0
276 275 0
-276 -275 0
277 -273 0
277 -276 0
-277 273 276 0
-280 184 0
-280 279 0
280 -184 -279 0
281 -278 -280 0
281 278 280 0
-281 -278 280 0
-281 278 -280 0
282 281 0
-282 -281 0
283 -277 0
283 -282 0
-283 277 282 0
-285 228 0
-285 265 0
285 -228 -265 0
286 -284 -285 0
286 284 285 0
-286 -284 285 0
-286 284 -285 0
287 286 0
-287 -286 0
288 -283 0
288 -287 0
-288 283 287 0
290 -289 -284 0
290 289 284 0
-290 -289 284 0
-290 289 -284 0
291 290 0
-291 -290 0
292 -288 0
292 -291 0
-292 288 291 0
294 -293 -184 0
294 293 184 0
-294 -293 184 0
-294 293 -184 0
295 294 0
-295 -294 0
296 -292 0
296 -295 0
-296 292 295 0
299 -297 -298 0
299 297 298 0
-299 -297 298 0
-299 297 -298 0
300 299 0
-300 -299 0
301 -296 0
301 -300 0
-301 296 300 0
303 -302 -188 0
303 302 188 0
-303 -302 188 0
-303 302 -188 0
304 303 0
-304 -303 0
305 -301 0
305 -304 0
-305 301 304 0
307 -306 -265 0
307 306 265 0
-307 -306 265 0
-307 306 -265 0
308 307 0
-308 -307 0
309 -305 0
309 -308 0
-309 305 308 0
312 -310 -311 0
312 310 311 0
-312 -310 311 0
-312 310 -311 0
313 312 0
-313 -312 0
314 -309 0
314 -313 0
-314 309 313 0
-316 158 0
-316 265 0
316 -158 -265 0
317 -315 -316 0
317 315 316 0
-317 -315 316 0
-317 315 -316 0
318 317 0
-318 -317 0
319 -314 0
319 -318 0
-319 314 318 0
321 -320 -315 0
321 320 315 0
-321 -320 315 0
-321 320 -315 0
322 321 0
-322 -321 0
323 -319 0
323 -322 0
-323 319 322 0
325 -324 -184 0
325 324 184 0
-325 -324 184 0
-325 324 -184 0
326 325 0
-326 -325 0
327 -323 0
327 -326 0
-327 323 326 0
-329 158 0
-329 175 0
329 -158 -175 0
330 -328 -329 0
330 328 329 0
-330 -328 329 0
-330 328 -329 0
331 330 0
-331 -330 0
332 -327 0
332 -331 0
-332 327 331 0
-334 188 0
-334 237 0
334 -188 -237 0
335 -333 -334 0
335 333 334 0
-335 -333 334 0
-335 333 -334 0
336 335 0
-336 -335 0
337 -332 0
337 -336 0
-337 332 336 0
-339 188 0
-339 265 0
339 -188 -265 0
340 -338 -339 0
340 338 339 0
-340 -338 339 0
-340 338 -339 0
341 340 0
-341 -340 0
342 -337 0
342 -341 0
-342 337 341 0
-345 184 0
-345 344 0
345 -184 -344 0
-346 345 0
-346 193 0
346 -345 -193 0
347 -343 0
347 -346 0
-347 343 346 0
-349 184 0
-349 348 0
349 -184 -348 0
-350 349 0
-350 203 0
350 -349 -203 0
-352 184 0
-352 351 0
352 -184 -351 0
-354 352 0
-354 353 0
354 -352 -353 0
355 -350 0
355 -354 0
-355 350 354 0
356 -347 0
356 -355 0
-356 347 355 0
-358 184 0
-358 357 0
358 -184 -357 0
-359 358 0
-359 212 0
359 -358 -212 0
-361 184 0
-361 360 0
361 -184 -360 0
-362 361 0
-362 218 0
362 -361 -218 0
363 -359 0
363 -362 0
-363 359 362 0
-365 364 0
-365 223 0
365 -364 -223 0
-367 184 0
-367 366 0
367 -184 -366 0
-368 367 0
-368 232 0
368 -367 -232 0
369 -365 0
369 -368 0
-369 365 368 0
370 -363 0
370 -369 0
-370 363 369 0
371 -356 0
371 -370 0
-371 356 370 0
-373 184 0
-373 372 0
373 -184 -372 0
-374 373 0
-374 242 0
374 -373 -242 0
376 -374 0
376 -375 0
-376 374 375 0
-378 184 0
-378 377 0
378 -184 -377 0
-379 378 0
-379 255 0
379 -378 -255 0
-381 184 0
-381 380 0
381 -184 -380 0
-382 381 0
-382 260 0
382 -381 -260 0
383 -379 0
383 -382 0
-383 379 382 0
384 -376 0
384 -383 0
-384 376 383 0
386 -384 0
386 -385 0
-386 384 385 0
387 -371 0
387 -386 0
-387 371 386 0
-389 2 0
-389 388 0
389 -2 -388 0
-390 389 0
-390 328 0
390 -389 -328 0
-392 2 0
-392 391 0
392 -2 -391 0
-393 392 0
-393 193 0
393 -392 -193 0
394 -390 0
394 -393 0
-394 390 393 0
-396 2 0
-396 395 0
396 -2 -395 0
-397 396 0
-397 203 0
397 -396 -203 0
-399 2 0
-399 398 0
399 -2 -398 0
-400 399 0
-400 353 0
400 -399 -353 0
401 -397 0
401 -400 0
-401 397 400 0
402 -394 0
402 -401 0
-402 394 401 0
-404 2 0
-404 403 0
404 -2 -403 0
-405 404 0
-405 212 0
405 -404 -212 0
-407 2 0
-407 406 0
407 -2 -406 0
-408 407 0
-408 218 0
408 -407 -218 0
409 -405 0
409 -408 0
-409 405 408 0
-411 2 0
-411 410 0
411 -2 -410 0
-412 411 0
-412 223 0
412 -411 -223 0
-414 2 0
-414 413 0
414 -2 -413 0
-415 414 0
-415 232 0
415 -414 -232 0
416 -412 0
416 -415 0
-416 412 415 0
417 -409 0
417 -416 0
-417 409 416 0
418 -402 0
418 -417 0
-418 402 417 0
-420 2 0
-420 419 0
420 -2 -419 0
-421 420 0
-421 242 0
421 -420 -242 0
-423 2 0
-423 422 0
423 -2 -422 0
-424 423 0
-424 333 0
424 -423 -333 0
425 -421 0
425 -424 0
-425 421 424 0
-427 2 0
-427 426 0
427 -2 -426 0
-428 427 0
-428 255 0
428 -427 -255 0
-430 2 0
-430 429 0
430 -2 -429 0
-431 430 0
-431 260 0
431 -430 -260 0
432 -428 0
432 -431 0
-432 428 431 0
433 -425 0
433 -432 0
-433 425 432 0
-435 2 0
-435 434 0
435 -2 -434 0
-436 435 0
-436 315 0
436 -435 -315 0
-438 2 0
-438 437 0
438 -2 -437 0
-439 438 0
-439 338 0
439 -438 -338 0
440 -436 0
440 -439 0
-440 436 439 0
-442 441 0
-442 269 0
442 -441 -269 0
-444 2 0
-444 443 0
444 -2 -443 0
-445 444 0
-445 284 0
445 -444 -284 0
446 -442 0
446 -445 0
-446 442 445 0
447 -440 0
447 -446 0
-447 440 446 0
448 -433 0
448 -447 0
-448 433 447 0
449 -418 0
449 -448 0
-449 418 448 0
450 -387 0
450 -449 0
-450 387 449 0
-452 1 0
-452 451 0
452 -1 -451 0
-453 452 0
-453 40 0
453 -452 -40 0
-454 1 0
-454 344 0
454 -1 -344 0
-455 454 0
-455 50 0
455 -454 -50 0
456 -453 0
456 -455 0
-456 453 455 0
-457 1 0
-457 348 0
457 -1 -348 0
-458 457 0
-458 60 0
458 -457 -60 0
-459 1 0
-459 351 0
459 -1 -351 0
-460 459 0
-460 70 0
460 -459 -70 0
461 -458 0
461 -460 0
-461 458 460 0
462 -456 0
462 -461 0
-462 456 461 0
-463 1 0
-463 357 0
463 -1 -357 0
-464 463 0
-464 80 0
464 -463 -80 0
-465 1 0
-465 360 0
465 -1 -360 0
-466 465 0
-466 85 0
466 -465 -85 0
467 -464 0
467 -466 0
-467 464 466 0
-469 1 0
-469 468 0
469 -1 -468 0
-470 469 0
-470 90 0
470 -469 -90 0
-471 1 0
-471 366 0
471 -1 -366 0
-472 471 0
-472 95 0
472 -471 -95 0
473 -470 0
473 -472 0
-473 470 472 0
474 -467 0
474 -473 0
-474 467 473 0
475 -462 0
475 -474 0
-475 462 474 0
-476 1 0
-476 372 0
476 -1 -372 0
-477 476 0
-477 105 0
477 -476 -105 0
-479 1 0
-479 478 0
479 -1 -478 0
-480 479 0
-480 110 0
480 -479 -110 0
481 -477 0
481 -480 0
-481 477 480 0
-482 1 0
-482 377 0
482 -1 -377 0
-483 482 0
-483 115 0
483 -482 -115 0
-484 1 0
-484 380 0
484 -1 -380 0
-485 484 0
-485 120 0
485 -484 -120 0
486 -483 0
486 -485 0
-486 483 485 0
487 -481 0
487 -486 0
-487 481 486 0
-489 1 0
-489 488 0
489 -1 -488 0
-490 489 0
-490 130 0
490 -489 -130 0
-492 1 0
-492 491 0
492 -1 -491 0
-493 492 0
-493 135 0
493 -492 -135 0
494 -490 0
494 -493 0
-494 490 493 0
-496 1 0
-496 495 0
496 -1 -495 0
-497 496 0
-497 140 0
497 -496 -140 0
-498 1 0
-498 279 0
498 -1 -279 0
-499 498 0
-499 145 0
499 -498 -145 0
500 -497 0
500 -499 0
-500 497 499 0
501 -494 0
501 -500 0
-501 494 500 0
502 -487 0
502 -501 0
-502 487 501 0
503 -475 0
503 -502 0
-503 475 502 0
-504 389 0
-504 40 0
504 -389 -40 0
-505 392 0
-505 50 0
505 -392 -50 0
506 -504 0
506 -505 0
-506 504 505 0
-507 396 0
-507 60 0
507 -396 -60 0
-508 399 0
-508 70 0
508 -399 -70 0
509 -507 0
509 -508 0
-509 507 508 0
510 -506 0
510 -509 0
-510 506 509 0
-511 404 0
-511 80 0
511 -404 -80 0
-512 407 0
-512 85 0
512 -407 -85 0
513 -511 0
513 -512 0
-513 511 512 0
-514 411 0
-514 90 0
514 -411 -90 0
-515 414 0
-515 95 0
515 -414 -95 0
516 -514 0
516 -515 0
-516 514 515 0
517 -513 0
517 -516 0
-517 513 516 0
518 -510 0
518 -517 0
-518 510 517 0
-519 420 0
-519 105 0
519 -420 -105 0
-520 423 0
-520 110 0
520 -423 -110 0
521 -519 0
521 -520 0
-521 519 520 0
-522 427 0
-522 115 0
522 -427 -115 0
-523 430 0
-523 120 0
523 -430 -120 0
524 -522 0
524 -523 0
-524 522 523 0
525 -521 0
525 -524 0
-525 521 524 0
-526 435 0
-526 130 0
526 -435 -130 0
-527 438 0
-527 135 0
527 -438 -135 0
528 -526 0
528 -527 0
-528 526 527 0
-530 2 0
-530 529 0
530 -2 -529 0
-531 530 0
-531 140 0
531 -530 -140 0
-532 444 0
-532 145 0
532 -444 -145 0
533 -531 0
533 -532 0
-533 531 532 0
534 -528 0
534 -533 0
-534 528 533 0
535 -525 0
535 -534 0
-535 525 534 0
536 -518 0
536 -535 0
-536 518 535 0
537 -503 0
537 -536 0
-537 503 536 0
538 -450 -537 0
538 450 537 0
-538 -450 537 0
-538 450 -537 0
539 -342 0
539 -538 0
-539 342 538 0
539 0
